c generated by sgen
p cnf 117 244
-2 -3 -4 0
-1 -3 -4 0
-1 -2 -4 0
-1 -2 -3 0
-6 -7 -8 0
-5 -7 -8 0
-5 -6 -8 0
-5 -6 -7 0
-10 -11 -12 0
-9 -11 -12 0
-9 -10 -12 0
-9 -10 -11 0
-14 -15 -16 0
-13 -15 -16 0
-13 -14 -16 0
-13 -14 -15 0
-18 -19 -20 0
-17 -19 -20 0
-17 -18 -20 0
-17 -18 -19 0
-22 -23 -24 0
-21 -23 -24 0
-21 -22 -24 0
-21 -22 -23 0
-26 -27 -28 0
-25 -27 -28 0
-25 -26 -28 0
-25 -26 -27 0
-30 -31 -32 0
-29 -31 -32 0
-29 -30 -32 0
-29 -30 -31 0
-34 -35 -36 0
-33 -35 -36 0
-33 -34 -36 0
-33 -34 -35 0
-38 -39 -40 0
-37 -39 -40 0
-37 -38 -40 0
-37 -38 -39 0
-42 -43 -44 0
-41 -43 -44 0
-41 -42 -44 0
-41 -42 -43 0
-46 -47 -48 0
-45 -47 -48 0
-45 -46 -48 0
-45 -46 -47 0
-50 -51 -52 0
-49 -51 -52 0
-49 -50 -52 0
-49 -50 -51 0
-54 -55 -56 0
-53 -55 -56 0
-53 -54 -56 0
-53 -54 -55 0
-58 -59 -60 0
-57 -59 -60 0
-57 -58 -60 0
-57 -58 -59 0
-62 -63 -64 0
-61 -63 -64 0
-61 -62 -64 0
-61 -62 -63 0
-66 -67 -68 0
-65 -67 -68 0
-65 -66 -68 0
-65 -66 -67 0
-70 -71 -72 0
-69 -71 -72 0
-69 -70 -72 0
-69 -70 -71 0
-74 -75 -76 0
-73 -75 -76 0
-73 -74 -76 0
-73 -74 -75 0
-78 -79 -80 0
-77 -79 -80 0
-77 -78 -80 0
-77 -78 -79 0
-82 -83 -84 0
-81 -83 -84 0
-81 -82 -84 0
-81 -82 -83 0
-86 -87 -88 0
-85 -87 -88 0
-85 -86 -88 0
-85 -86 -87 0
-90 -91 -92 0
-89 -91 -92 0
-89 -90 -92 0
-89 -90 -91 0
-94 -95 -96 0
-93 -95 -96 0
-93 -94 -96 0
-93 -94 -95 0
-98 -99 -100 0
-97 -99 -100 0
-97 -98 -100 0
-97 -98 -99 0
-102 -103 -104 0
-101 -103 -104 0
-101 -102 -104 0
-101 -102 -103 0
-106 -107 -108 0
-105 -107 -108 0
-105 -106 -108 0
-105 -106 -107 0
-110 -111 -112 0
-109 -111 -112 0
-109 -110 -112 0
-109 -110 -111 0
-113 -114 -115 0
-113 -114 -116 0
-113 -114 -117 0
-113 -115 -116 0
-113 -115 -117 0
-113 -116 -117 0
-114 -115 -116 0
-114 -115 -117 0
-114 -116 -117 0
-115 -116 -117 0
100 75 21 0
72 75 21 0
72 100 21 0
72 100 75 0
44 52 107 0
69 52 107 0
69 44 107 0
69 44 52 0
108 8 63 0
74 8 63 0
74 108 63 0
74 108 8 0
4 56 76 0
13 56 76 0
13 4 76 0
13 4 56 0
5 36 71 0
113 36 71 0
113 5 71 0
113 5 36 0
31 101 3 0
33 101 3 0
33 31 3 0
33 31 101 0
84 42 104 0
87 42 104 0
87 84 104 0
87 84 42 0
92 80 97 0
43 80 97 0
43 92 97 0
43 92 80 0
95 28 58 0
9 28 58 0
9 95 58 0
9 95 28 0
102 55 78 0
20 55 78 0
20 102 78 0
20 102 55 0
19 93 111 0
86 93 111 0
86 19 111 0
86 19 93 0
17 16 57 0
34 16 57 0
34 17 57 0
34 17 16 0
60 45 38 0
49 45 38 0
49 60 38 0
49 60 45 0
51 68 109 0
22 68 109 0
22 51 109 0
22 51 68 0
11 48 103 0
91 48 103 0
91 11 103 0
91 11 48 0
24 77 37 0
1 77 37 0
1 24 37 0
1 24 77 0
29 23 14 0
96 23 14 0
96 29 14 0
96 29 23 0
117 98 46 0
81 98 46 0
81 117 46 0
81 117 98 0
59 2 53 0
61 2 53 0
61 59 53 0
61 59 2 0
12 83 105 0
35 83 105 0
35 12 105 0
35 12 83 0
116 90 106 0
39 90 106 0
39 116 106 0
39 116 90 0
30 47 25 0
88 47 25 0
88 30 25 0
88 30 47 0
85 6 50 0
54 6 50 0
54 85 50 0
54 85 6 0
110 7 99 0
40 7 99 0
40 110 99 0
40 110 7 0
114 79 15 0
65 79 15 0
65 114 15 0
65 114 79 0
41 94 73 0
115 94 73 0
115 41 73 0
115 41 94 0
70 89 27 0
66 89 27 0
66 70 27 0
66 70 89 0
82 64 26 0
112 64 26 0
112 82 26 0
112 82 64 0
32 67 10 0
32 67 62 0
32 67 18 0
32 10 62 0
32 10 18 0
32 62 18 0
67 10 62 0
67 10 18 0
67 62 18 0
10 62 18 0
